NAME lp_typeD_3842
OBJSENSE MAX
ROWS
 N  OBJ
 L  c0      
 L  c1      
 G  c2      
 G  c3      
 G  c4      
 L  c_key_upper
 G  c_key_lower
 G  _chain_constr_1
 G  _chain_constr_2
 G  _chain_constr_3
 G  _chain_constr_4
 G  _chain_constr_5
 G  _chain_cycle
COLUMNS
    x0        OBJ       7.4183713309581856e-01
    x0        c0        1.0956622354355352e+00
    x0        c1        1.5852782020896821e+00
    x0        c2        1.8950930336719232e+00
    x0        c3        1.2172365353082646e+00
    x0        c4        8.8201439141691440e-01
    x0        c_key_upper  1.8318685829704866e+00
    x0        c_key_lower  1.8318685829704866e+00
    x1        OBJ       1.1578389596823904e+00
    x1        c0        8.8951440917114033e-01
    x1        c1        1.7917365349481438e+00
    x1        c2        1.2033826888134191e+00
    x1        c3        1.4774533732846673e+00
    x1        c4        1.8944953130114173e+00
    x1        c_key_upper  1.4902328973973515e+00
    x1        c_key_lower  1.4902328973973515e+00
    x2        OBJ       7.1247736390659977e-01
    x2        c0        1.7245139375188898e+00
    x2        c1        7.2186604800423115e-01
    x2        c2        1.3030734397596793e+00
    x2        c3        1.3326711197259906e+00
    x2        c4        1.3018858027072515e+00
    x2        c_key_upper  1.2336909396215925e+00
    x2        c_key_lower  1.2336909396215925e+00
    x3        OBJ       1.1083183774468264e+00
    x3        c0        1.07359668507544
    x3        c1        1.54266997170631
    x3        c2        1.0741807148602445e+00
    x3        c3        1.0982022193769418e+00
    x3        c4        1.9060200548149422e+00
    x3        c_key_upper  1.3990955148571715e+00
    x3        c_key_lower  1.3990955148571715e+00
    x4        OBJ       1.3659436422113491e+00
    x4        c0        5.4370638415037442e-01
    x4        c1        1.8037385415115366e+00
    x4        c2        1.2069490587927996e+00
    x4        c3        1.5726762459399710e+00
    x4        c4        6.6932127429670407e-01
    x4        c_key_upper  1.6578065937117681e+00
    x4        c_key_lower  1.6578065937117681e+00
    x5        OBJ       5.2563368551414180e-01
    x5        c0        1.5785753404829244e+00
    x5        c1        1.9574099124338797e+00
    x5        c2        1.8667450115726572e+00
    x5        c3        1.9260783883423154e+00
    x5        c4        1.9570618907636250e+00
    x5        c_key_upper  1.3212584362522679e+00
    x5        c_key_lower  1.3212584362522679e+00
    _chain_var_0  _chain_constr_1  -1
    _chain_var_0  _chain_cycle  1
    _chain_var_1  _chain_constr_1  1
    _chain_var_1  _chain_constr_2  -1
    _chain_var_2  _chain_constr_2  1
    _chain_var_2  _chain_constr_3  -1
    _chain_var_3  _chain_constr_3  1
    _chain_var_3  _chain_constr_4  -1
    _chain_var_4  _chain_constr_4  1
    _chain_var_4  _chain_constr_5  -1
    _chain_var_5  _chain_constr_5  1
    _chain_var_5  _chain_cycle  -1
RHS
    RHS1      c0        4.0805313038993795e+01
    RHS1      c1        4.8145036383501221e+01
    RHS1      c2        1.0777265594655573e+01
    RHS1      c3        1.2933564108947754e+01
    RHS1      c4        9.0094788981814187e+00
    RHS1      c_key_upper  4.4669764824053189e+01
    RHS1      c_key_lower  2.2334882412026595e+01
    RHS1      _chain_constr_1  10
    RHS1      _chain_constr_2  10
    RHS1      _chain_constr_3  10
    RHS1      _chain_constr_4  10
    RHS1      _chain_constr_5  10
    RHS1      _chain_cycle  10
BOUNDS
 UP BND1      x0        10
 UP BND1      x1        10
 UP BND1      x2        10
 UP BND1      x3        10
 UP BND1      x4        10
 UP BND1      x5        10
 UP BND1      _chain_var_0  100
 UP BND1      _chain_var_1  100
 UP BND1      _chain_var_2  100
 UP BND1      _chain_var_3  100
 UP BND1      _chain_var_4  100
 UP BND1      _chain_var_5  100
ENDATA
